SECTION Graph
Nodes 429
Edges 702
E 1 2 5
E 2 3 5
E 3 4 5
E 4 5 5
E 6 7 5
E 8 9 5
E 10 11 5
E 11 12 5
E 12 13 5
E 13 14 5
E 14 15 5
E 15 16 5
E 16 17 5
E 17 18 5
E 18 19 5
E 19 20 5
E 20 21 5
E 21 22 5
E 22 23 5
E 23 24 5
E 24 25 5
E 25 26 5
E 26 27 5
E 27 28 5
E 28 29 5
E 1 30 13
E 3 32 13
E 4 33 13
E 5 34 13
E 6 36 13
E 7 37 13
E 8 38 13
E 9 39 13
E 10 41 13
E 11 42 13
E 13 44 13
E 14 45 13
E 16 46 13
E 18 48 13
E 19 49 13
E 21 50 13
E 22 51 13
E 23 52 13
E 24 53 13
E 26 54 13
E 28 55 13
E 30 31 5
E 31 32 5
E 32 33 5
E 33 34 5
E 34 35 5
E 35 36 5
E 36 37 5
E 38 39 5
E 39 40 5
E 40 41 5
E 41 42 5
E 42 43 5
E 43 44 5
E 44 45 5
E 46 47 5
E 47 48 5
E 48 49 5
E 50 51 5
E 51 52 5
E 52 53 5
E 55 56 5
E 30 57 13
E 31 58 13
E 32 59 13
E 34 60 13
E 35 61 13
E 36 62 13
E 37 63 13
E 38 65 13
E 39 66 13
E 41 68 13
E 42 69 13
E 43 70 13
E 44 71 13
E 45 72 13
E 46 73 13
E 47 74 13
E 49 75 13
E 50 76 13
E 51 77 13
E 52 78 13
E 53 79 13
E 54 80 13
E 55 81 13
E 56 82 13
E 57 58 5
E 58 59 5
E 60 61 5
E 61 62 5
E 62 63 5
E 63 64 5
E 64 65 5
E 65 66 5
E 66 67 5
E 67 68 5
E 68 69 5
E 69 70 5
E 70 71 5
E 71 72 5
E 73 74 5
E 76 77 5
E 77 78 5
E 78 79 5
E 81 82 5
E 57 83 13
E 58 84 13
E 59 85 13
E 60 86 13
E 62 88 13
E 63 89 13
E 64 90 13
E 65 91 13
E 66 92 13
E 67 93 13
E 68 94 13
E 70 96 13
E 71 97 13
E 72 98 13
E 73 100 13
E 74 101 13
E 75 102 13
E 76 104 13
E 78 106 13
E 79 107 13
E 80 109 13
E 81 111 13
E 82 112 13
E 83 84 5
E 84 85 5
E 86 87 5
E 87 88 5
E 88 89 5
E 89 90 5
E 90 91 5
E 91 92 5
E 92 93 5
E 93 94 5
E 94 95 5
E 95 96 5
E 96 97 5
E 97 98 5
E 98 99 5
E 99 100 5
E 100 101 5
E 102 103 5
E 103 104 5
E 104 105 5
E 105 106 5
E 106 107 5
E 107 108 5
E 108 109 5
E 109 110 5
E 110 111 5
E 111 112 5
E 83 113 13
E 85 114 13
E 86 116 13
E 88 117 13
E 90 119 13
E 91 120 13
E 93 122 13
E 94 123 13
E 95 124 13
E 96 125 13
E 98 126 13
E 99 127 13
E 100 128 13
E 101 129 13
E 102 131 13
E 103 132 13
E 104 133 13
E 106 135 13
E 107 136 13
E 108 137 13
E 109 138 13
E 110 139 13
E 111 140 13
E 112 141 13
E 114 115 5
E 115 116 5
E 117 118 5
E 118 119 5
E 119 120 5
E 120 121 5
E 121 122 5
E 122 123 5
E 123 124 5
E 124 125 5
E 126 127 5
E 127 128 5
E 128 129 5
E 129 130 5
E 130 131 5
E 131 132 5
E 132 133 5
E 133 134 5
E 134 135 5
E 135 136 5
E 136 137 5
E 137 138 5
E 138 139 5
E 139 140 5
E 140 141 5
E 113 142 13
E 114 143 13
E 115 144 13
E 116 145 13
E 117 146 13
E 118 147 13
E 120 149 13
E 121 150 13
E 123 151 13
E 125 152 13
E 126 153 13
E 127 154 13
E 129 155 13
E 130 156 13
E 131 157 13
E 133 158 13
E 134 159 13
E 135 160 13
E 137 161 13
E 138 162 13
E 139 163 13
E 141 164 13
E 143 144 5
E 144 145 5
E 146 147 5
E 147 148 5
E 148 149 5
E 149 150 5
E 153 154 5
E 155 156 5
E 156 157 5
E 158 159 5
E 159 160 5
E 161 162 5
E 162 163 5
E 142 165 13
E 143 167 13
E 144 168 13
E 145 169 13
E 146 171 13
E 147 172 13
E 148 173 13
E 149 174 13
E 150 175 13
E 151 176 13
E 152 177 13
E 153 179 13
E 154 180 13
E 155 181 13
E 156 182 13
E 157 183 13
E 158 184 13
E 159 185 13
E 160 186 13
E 161 187 13
E 162 188 13
E 163 189 13
E 164 190 13
E 165 166 5
E 166 167 5
E 167 168 5
E 168 169 5
E 169 170 5
E 170 171 5
E 171 172 5
E 172 173 5
E 173 174 5
E 174 175 5
E 177 178 5
E 178 179 5
E 179 180 5
E 181 182 5
E 182 183 5
E 184 185 5
E 185 186 5
E 187 188 5
E 188 189 5
E 165 191 13
E 166 192 13
E 167 193 13
E 168 194 13
E 169 195 13
E 170 196 13
E 171 197 13
E 172 198 13
E 173 199 13
E 175 200 13
E 176 202 13
E 177 204 13
E 178 205 13
E 179 206 13
E 180 207 13
E 181 209 13
E 182 210 13
E 183 211 13
E 184 213 13
E 186 215 13
E 187 217 13
E 188 218 13
E 189 219 13
E 190 221 13
E 191 192 5
E 192 193 5
E 193 194 5
E 194 195 5
E 195 196 5
E 196 197 5
E 197 198 5
E 198 199 5
E 200 201 5
E 201 202 5
E 202 203 5
E 203 204 5
E 204 205 5
E 205 206 5
E 206 207 5
E 207 208 5
E 208 209 5
E 209 210 5
E 210 211 5
E 211 212 5
E 212 213 5
E 213 214 5
E 214 215 5
E 215 216 5
E 216 217 5
E 217 218 5
E 218 219 5
E 219 220 5
E 220 221 5
E 191 222 13
E 192 223 13
E 194 225 13
E 195 226 13
E 196 227 13
E 197 228 13
E 198 229 13
E 199 230 13
E 200 231 13
E 201 232 13
E 202 233 13
E 203 234 13
E 204 235 13
E 206 237 13
E 207 238 13
E 208 239 13
E 209 240 13
E 211 242 13
E 212 243 13
E 213 244 13
E 214 245 13
E 215 246 13
E 216 247 13
E 217 248 13
E 219 250 13
E 220 251 13
E 221 252 13
E 222 223 5
E 223 224 5
E 224 225 5
E 225 226 5
E 226 227 5
E 227 228 5
E 228 229 5
E 229 230 5
E 231 232 5
E 232 233 5
E 233 234 5
E 234 235 5
E 235 236 5
E 236 237 5
E 237 238 5
E 238 239 5
E 239 240 5
E 240 241 5
E 241 242 5
E 242 243 5
E 243 244 5
E 244 245 5
E 245 246 5
E 246 247 5
E 247 248 5
E 248 249 5
E 249 250 5
E 250 251 5
E 251 252 5
E 222 253 13
E 223 254 13
E 224 255 13
E 226 256 13
E 228 258 13
E 229 259 13
E 230 260 13
E 231 262 13
E 232 263 13
E 233 264 13
E 234 265 13
E 236 267 13
E 237 268 13
E 238 269 13
E 240 270 13
E 242 271 13
E 243 272 13
E 244 273 13
E 245 274 13
E 246 275 13
E 247 276 13
E 248 277 13
E 249 278 13
E 250 279 13
E 251 280 13
E 252 281 13
E 253 254 5
E 254 255 5
E 256 257 5
E 257 258 5
E 258 259 5
E 259 260 5
E 260 261 5
E 261 262 5
E 262 263 5
E 263 264 5
E 264 265 5
E 265 266 5
E 266 267 5
E 267 268 5
E 268 269 5
E 271 272 5
E 272 273 5
E 273 274 5
E 274 275 5
E 275 276 5
E 276 277 5
E 277 278 5
E 278 279 5
E 279 280 5
E 280 281 5
E 254 283 13
E 255 284 13
E 256 285 13
E 258 287 13
E 259 288 13
E 260 289 13
E 261 290 13
E 262 291 13
E 264 292 13
E 265 293 13
E 267 295 13
E 268 296 13
E 269 297 13
E 270 298 13
E 271 299 13
E 272 300 13
E 273 301 13
E 275 303 13
E 276 304 13
E 278 306 13
E 279 307 13
E 280 308 13
E 281 309 13
E 282 283 5
E 283 284 5
E 285 286 5
E 286 287 5
E 287 288 5
E 288 289 5
E 289 290 5
E 290 291 5
E 292 293 5
E 293 294 5
E 294 295 5
E 295 296 5
E 296 297 5
E 299 300 5
E 300 301 5
E 301 302 5
E 302 303 5
E 303 304 5
E 304 305 5
E 305 306 5
E 306 307 5
E 307 308 5
E 308 309 5
E 282 310 13
E 283 311 13
E 284 312 13
E 285 314 13
E 287 316 13
E 288 317 13
E 289 318 13
E 290 319 13
E 291 320 13
E 292 321 13
E 294 323 13
E 296 325 13
E 297 326 13
E 298 328 13
E 299 330 13
E 300 331 13
E 301 332 13
E 302 333 13
E 303 334 13
E 304 335 13
E 305 336 13
E 306 337 13
E 307 338 13
E 308 339 13
E 309 340 13
E 310 311 5
E 311 312 5
E 312 313 5
E 313 314 5
E 314 315 5
E 315 316 5
E 316 317 5
E 317 318 5
E 318 319 5
E 319 320 5
E 321 322 5
E 322 323 5
E 323 324 5
E 324 325 5
E 325 326 5
E 326 327 5
E 327 328 5
E 328 329 5
E 329 330 5
E 330 331 5
E 331 332 5
E 332 333 5
E 333 334 5
E 334 335 5
E 335 336 5
E 336 337 5
E 337 338 5
E 338 339 5
E 339 340 5
E 310 341 13
E 311 342 13
E 312 343 13
E 313 344 13
E 314 345 13
E 316 346 13
E 317 347 13
E 318 348 13
E 320 350 13
E 321 352 13
E 322 353 13
E 323 354 13
E 324 355 13
E 325 356 13
E 326 357 13
E 327 358 13
E 328 359 13
E 329 360 13
E 330 361 13
E 332 363 13
E 334 365 13
E 335 366 13
E 336 367 13
E 338 369 13
E 339 370 13
E 340 371 13
E 341 342 5
E 342 343 5
E 343 344 5
E 344 345 5
E 346 347 5
E 347 348 5
E 348 349 5
E 349 350 5
E 350 351 5
E 351 352 5
E 352 353 5
E 353 354 5
E 354 355 5
E 355 356 5
E 356 357 5
E 357 358 5
E 358 359 5
E 359 360 5
E 360 361 5
E 361 362 5
E 362 363 5
E 363 364 5
E 364 365 5
E 365 366 5
E 366 367 5
E 367 368 5
E 368 369 5
E 369 370 5
E 370 371 5
E 341 372 13
E 343 373 13
E 344 374 13
E 345 375 13
E 346 376 13
E 348 378 13
E 349 379 13
E 350 380 13
E 351 381 13
E 352 382 13
E 353 383 13
E 354 384 13
E 356 385 13
E 358 387 13
E 359 388 13
E 360 389 13
E 361 390 13
E 362 391 13
E 363 392 13
E 364 393 13
E 365 394 13
E 366 395 13
E 367 396 13
E 368 397 13
E 369 398 13
E 370 399 13
E 371 400 13
E 373 374 5
E 374 375 5
E 376 377 5
E 377 378 5
E 378 379 5
E 379 380 5
E 380 381 5
E 381 382 5
E 382 383 5
E 383 384 5
E 385 386 5
E 386 387 5
E 387 388 5
E 388 389 5
E 389 390 5
E 390 391 5
E 391 392 5
E 392 393 5
E 393 394 5
E 394 395 5
E 395 396 5
E 396 397 5
E 397 398 5
E 398 399 5
E 399 400 5
E 372 401 13
E 373 403 13
E 374 404 13
E 375 405 13
E 376 407 13
E 377 408 13
E 378 409 13
E 380 410 13
E 381 411 13
E 383 413 13
E 384 414 13
E 385 415 13
E 386 416 13
E 387 417 13
E 388 418 13
E 390 419 13
E 391 420 13
E 392 421 13
E 394 423 13
E 396 425 13
E 397 426 13
E 398 427 13
E 399 428 13
E 400 429 13
E 401 402 5
E 402 403 5
E 403 404 5
E 404 405 5
E 405 406 5
E 406 407 5
E 407 408 5
E 408 409 5
E 410 411 5
E 411 412 5
E 412 413 5
E 413 414 5
E 415 416 5
E 416 417 5
E 417 418 5
E 419 420 5
E 420 421 5
E 421 422 5
E 422 423 5
E 423 424 5
E 424 425 5
E 425 426 5
E 426 427 5
E 427 428 5
E 428 429 5
END

SECTION Terminals
Terminals 17
T 15
T 20
T 25
T 27
T 48
T 84
T 87
T 97
T 122
T 124
T 128
T 132
T 136
T 140
T 174
T 225
T 402
END

EOF
